
  32    1
  10

   0   0   7 2 3 4 6 7 11 12 
  10   3   8 20 19 17 16 14 9 8 5 
   8   8   5 19 18 16 15 9 
   2   4   4 22 18 17 13 
   4   6   3 22 18 10 
  10   9   5 31 23 22 21 17 
   9   7   3 23 18 16 
   9   6   4 31 24 23 18 
  10   4   3 24 21 13 
   2   6   3 27 21 15 
   3   7   4 27 24 23 21 
   5  10   4 27 24 22 21 
  10   8   5 31 30 27 26 23 
   2   5   1 18 
   5   7   4 31 30 24 23 
   1   8   4 31 30 26 24 
   4   5   4 30 27 26 24 
   6   6   3 27 25 21 
   7   3   3 30 27 22 
   3   8   3 31 30 22 
   4   6   3 30 29 26 
   2   6   2 26 25 
   3   5   2 28 25 
   2   6   1 25 
   1   5   1 29 
   9   8   1 28 
   3   6   1 28 
   9   3   1 32
   5   5   1 32
  10   4   1 32
   7   6   1 32
   0   0   0 
